WARNING: for repeatability, setting FPU to use double precision
============================[ Problem Statistics ]=============================
|                                                                             |
|  Number of variables:           100                                         |
|  Number of clauses:             449                                         |
|  Parse time:                   0.00 s                                       |
|  Eliminated clauses:           0.00 Mb                                      |
|  Simplification time:          0.00 s                                       |
|                                                                             |
============================[ Search Statistics ]==============================
| Conflicts |          ORIGINAL         |          LEARNT          | Progress |
|           |    Vars  Clauses Literals |    Limit  Clauses Lit/Cl |          |
===============================================================================
|       100 |      96      446     1356 |      163      100      9 |  0.010 % |
|       250 |      96      446     1356 |      179      167      6 |  0.020 % |
===============================================================================
restarts              : 3
conflicts             : 328            (89300 /sec)
decisions             : 418            (0.00 % random) (113803 /sec)
propagations          : 7589           (2066158 /sec)
conflict literals     : 2172           (19.62 % deleted)
Memory used           : 13.00 MB
CPU time              : 0.003673 s

SATISFIABLE
